
Gurobi 7.5.2 (linux64) logging started Sat Jul  7 16:00:08 2018

Changed value of parameter LogFile to result/ilp/simNo_1-n_100-m_40-s_4-minVAF_0.05-cov_10000-k_2-fn_0.10-fp_0.0001-na_0.15.ILP.gurobiSolverLog
   Prev: gurobi.log  Default: 
Changed value of parameter TimeLimit to 86400.0
   Prev: 1e+100  Min: 0.0  Max: 1e+100  Default: 1e+100
Optimize a model with 639293 rows, 10765 columns and 1940420 nonzeros
Variable types: 0 continuous, 10765 integer (10765 binary)
Coefficient statistics:
  Matrix range     [4e-04, 4e+00]
  Objective range  [4e-01, 9e+00]
  Bounds range     [1e+00, 1e+00]
  RHS range        [2e-01, 2e+00]
Found heuristic solution: objective -18612.05021
Presolve removed 127275 rows and 989 columns (presolve time = 5s) ...
Presolve removed 182219 rows and 1533 columns (presolve time = 10s) ...
Presolve removed 182219 rows and 1533 columns (presolve time = 15s) ...
Presolve removed 182219 rows and 1533 columns
Presolve time: 15.20s
Presolved: 457074 rows, 9232 columns, 1374017 nonzeros
Variable types: 0 continuous, 9232 integer (9232 binary)
Presolved: 9232 rows, 466306 columns, 1383249 nonzeros

Presolve removed 9232 rows and 466306 columns

Root simplex log...

Iteration    Objective       Primal Inf.    Dual Inf.      Time
       0    1.4443240e+01   0.000000e+00   8.982700e+04     19s
   12323   -1.6524444e+02   0.000000e+00   4.629598e+05     20s
   37023   -2.8165165e+02   0.000000e+00   9.975542e+04     25s
   46431   -3.0946541e+02   0.000000e+00   0.000000e+00     28s
   46431   -3.0946541e+02   0.000000e+00   0.000000e+00     28s

Root relaxation: objective -3.094654e+02, 46431 iterations, 11.44 seconds
Total elapsed time = 79.72s
Total elapsed time = 112.70s
Total elapsed time = 223.36s
Total elapsed time = 281.96s

    Nodes    |    Current Node    |     Objective Bounds      |     Work
 Expl Unexpl |  Obj  Depth IntInf | Incumbent    BestBd   Gap | It/Node Time

     0     0 -309.46541    0 1409 -18612.050 -309.46541  98.3%     -  302s
H    0     0                    -18080.13948 -309.46541  98.3%     -  308s
     0     0 -314.53678    0 1430 -18080.139 -314.53678  98.3%     -  381s
H    0     0                    -405.1577329 -314.53678  22.4%     -  389s
H    0     0                    -380.7416155 -314.53678  17.4%     -  391s
     0     0 -314.53678    0 1435 -380.74162 -314.53678  17.4%     -  393s
     0     0 -320.25488    0 1494 -380.74162 -320.25488  15.9%     -  756s
     0     0 -320.48394    0 1572 -380.74162 -320.48394  15.8%     -  850s
     0     0 -320.52613    0 1632 -380.74162 -320.52613  15.8%     -  880s
     0     0 -320.53308    0 1632 -380.74162 -320.53308  15.8%     -  889s
     0     0 -320.53406    0 1633 -380.74162 -320.53406  15.8%     -  902s
     0     0 -321.76477    0 1579 -380.74162 -321.76477  15.5%     - 1167s
     0     0 -321.77784    0 1644 -380.74162 -321.77784  15.5%     - 1188s
     0     0 -323.34995    0 1587 -380.74162 -323.34995  15.1%     - 3422s
H    0     0                    -378.5219684 -323.34995  14.6%     - 3427s
     0     0 -323.34995    0 1590 -378.52197 -323.34995  14.6%     - 3429s
     0     0 -324.54930    0 1673 -378.52197 -324.54930  14.3%     - 4551s
     0     0 -324.58767    0 1595 -378.52197 -324.58767  14.2%     - 4582s
     0     0 -327.29975    0 1430 -378.52197 -327.29975  13.5%     - 7847s
H    0     0                    -374.0826744 -327.29975  12.5%     - 7851s
     0     0 -328.13377    0 1646 -374.08267 -328.13377  12.3%     - 8351s
     0     0 -328.26929    0 1641 -374.08267 -328.26929  12.2%     - 8420s
     0     0 -328.26929    0 1641 -374.08267 -328.26929  12.2%     - 8423s
     0     0 -330.91292    0 1682 -374.08267 -330.91292  11.5%     - 18018s
     0     0 -331.28499    0 1718 -374.08267 -331.28499  11.4%     - 18104s
     0     0 -331.29071    0 1715 -374.08267 -331.29071  11.4%     - 18124s
     0     0 -331.42358    0 1720 -374.08267 -331.42358  11.4%     - 18164s
     0     0 -331.42358    0 1721 -374.08267 -331.42358  11.4%     - 18168s
     0     0 -334.07460    0 1606 -374.08267 -334.07460  10.7%     - 19366s
     0     0 -334.75741    0 1616 -374.08267 -334.75741  10.5%     - 19482s
     0     0 -335.01765    0 1691 -374.08267 -335.01765  10.4%     - 19754s
     0     0 -335.04702    0 1709 -374.08267 -335.04702  10.4%     - 19775s
     0     0 -335.05155    0 1705 -374.08267 -335.05155  10.4%     - 19785s
     0     0 -336.69641    0 1659 -374.08267 -336.69641  10.0%     - 21844s
     0     0 -336.69641    0 1661 -374.08267 -336.69641  10.0%     - 21855s
     0     0 -338.34905    0 1554 -374.08267 -338.34905  9.55%     - 29635s
     0     0 -338.43556    0 1544 -374.08267 -338.43556  9.53%     - 29760s
     0     0 -338.43556    0 1543 -374.08267 -338.43556  9.53%     - 29767s
     0     0 -340.39608    0 1459 -374.08267 -340.39608  9.01%     - 34456s
     0     0 -340.46291    0 1476 -374.08267 -340.46291  8.99%     - 34560s
     0     0 -340.46291    0 1474 -374.08267 -340.46291  8.99%     - 34565s
     0     0 -341.55788    0 1556 -374.08267 -341.55788  8.69%     - 35740s
H    0     0                    -369.6433803 -341.55788  7.60%     - 35747s
     0     0 -342.10144    0 1470 -369.64338 -342.10144  7.45%     - 35961s
     0     0 -342.16943    0 1542 -369.64338 -342.16943  7.43%     - 36469s
     0     0 -342.17169    0 1489 -369.64338 -342.17169  7.43%     - 36491s
     0     0 -343.87883    0 1467 -369.64338 -343.87883  6.97%     - 42884s
     0     0 -343.88340    0 1477 -369.64338 -343.88340  6.97%     - 42900s
     0     0 -343.89530    0 1478 -369.64338 -343.89530  6.97%     - 42931s
     0     0 -343.91339    0 1490 -369.64338 -343.91339  6.96%     - 42973s
     0     0 -343.91981    0 1490 -369.64338 -343.91981  6.96%     - 42994s
     0     0 -343.92348    0 1490 -369.64338 -343.92348  6.96%     - 43008s
     0     0 -343.92348    0 1490 -369.64338 -343.92348  6.96%     - 43011s
     0     0 -344.63737    0 1471 -369.64338 -344.63737  6.76%     - 43656s
     0     0 -344.66308    0 1476 -369.64338 -344.66308  6.76%     - 43767s
     0     0 -344.66940    0 1474 -369.64338 -344.66940  6.76%     - 43790s
     0     0 -344.68220    0 1469 -369.64338 -344.68220  6.75%     - 43857s
     0     0 -344.68769    0 1480 -369.64338 -344.68769  6.75%     - 43889s
     0     0 -344.68769    0 1483 -369.64338 -344.68769  6.75%     - 43894s
     0     0 -345.45054    0 1467 -369.64338 -345.45054  6.54%     - 57884s
     0     0 -345.45054    0 1474 -369.64338 -345.45054  6.54%     - 57895s
     0     0 -345.45054    0 1501 -369.64338 -345.45054  6.54%     - 57911s
     0     0 -345.45054    0 1501 -369.64338 -345.45054  6.54%     - 57923s
     0     0 -346.06224    0 1458 -369.64338 -346.06224  6.38%     - 60044s
     0     0 -346.10332    0 1466 -369.64338 -346.10332  6.37%     - 60115s
     0     0 -346.19042    0 1453 -369.64338 -346.19042  6.34%     - 60179s
     0     0 -346.19042    0 1455 -369.64338 -346.19042  6.34%     - 60186s
     0     0 -346.24774    0 1556 -369.64338 -346.24774  6.33%     - 60247s
     0     0 -346.56868    0 1540 -369.64338 -346.56868  6.24%     - 60467s
     0     0 -346.57011    0 1537 -369.64338 -346.57011  6.24%     - 60487s
     0     0 -346.57011    0 1543 -369.64338 -346.57011  6.24%     - 60504s
     0     0 -346.57011    0 1546 -369.64338 -346.57011  6.24%     - 60517s
     0     0 -347.31224    0 1538 -369.64338 -347.31224  6.04%     - 61051s
     0     0 -347.31224    0 1542 -369.64338 -347.31224  6.04%     - 61069s
     0     0 -347.31224    0 1541 -369.64338 -347.31224  6.04%     - 61084s
     0     0 -347.31224    0 1542 -369.64338 -347.31224  6.04%     - 61107s
     0     0 -347.31224    0 1521 -369.64338 -347.31224  6.04%     - 62976s
     0     0 -347.31224    0 1521 -369.64338 -347.31224  6.04%     - 63211s
     0     2 -347.32101    0 1521 -369.64338 -347.32101  6.04%     - 63875s
     1     3 -350.77638    1  886 -369.64338 -347.34363  6.03% 21754 64074s
     2     4 -351.88620    2  837 -369.64338 -347.34363  6.03% 13829 64161s
     3     5 -357.43532    3  639 -369.64338 -347.34363  6.03% 11585 64256s
     4     6 -359.65497    4  489 -369.64338 -347.34363  6.03%  9612 64292s
     5     7 -361.31970    5  450 -369.64338 -347.34363  6.03%  7866 64301s
     6     8 -365.20409    5  483 -369.64338 -347.34363  6.03%  7790 64386s
     7     9 -366.31391    6  661 -369.64338 -347.34363  6.03%  6816 64395s
     8     8     cutoff    6      -369.64338 -347.34363  6.03%  6817 64446s
     9     9 -367.42373    7  490 -369.64338 -347.34363  6.03%  6253 64464s
    10     8     cutoff    7      -369.64338 -347.34363  6.03%  5686 64468s
    11     7     cutoff    8      -369.64338 -347.34363  6.03%  5354 64478s
    12     6     cutoff    8      -369.64338 -347.34363  6.03%  5131 64494s
    13     7 -358.95487    1 1193 -369.64338 -350.77748  5.10%  7048 64992s
    14     8 -366.14346    2 1239 -369.64338 -350.77748  5.10%  7725 65181s
    15     7     cutoff    2      -369.64338 -350.77748  5.10%  8232 65392s
    16     6     cutoff    3      -369.64338 -350.77748  5.10%  7738 65396s
    17     5     cutoff    3      -369.64338 -350.77748  5.10%  7316 65401s
    18     6 -357.43532    2  741 -369.64338 -351.88620  4.80%  7984 65729s
    19     7 -358.54515    3  693 -369.64338 -351.88620  4.80%  7612 65740s
    20     8 -359.65497    4  630 -369.64338 -351.88620  4.80%  7276 65749s
    21     9 -360.76479    5  588 -369.64338 -351.88620  4.80%  6997 65759s
    22     8     cutoff    5      -369.64338 -351.88620  4.80%  7226 65892s
    23     9 -361.87462    6  594 -369.64338 -351.88620  4.80%  6982 65903s
    24     8     cutoff    6      -369.64338 -351.88620  4.80%  6965 65974s
    25     9 -361.87462    7  593 -369.64338 -351.88620  4.80%  6687 65975s
    26    10 -362.98444    8  545 -369.64338 -351.88620  4.80%  6453 65981s
    27    11 -364.09426    9  528 -369.64338 -351.88620  4.80%  6218 65988s
    29    13 -364.09426   11  524 -369.64338 -351.88620  4.80%  5792 65990s
    32    14 -366.31391   13  489 -369.64338 -351.88620  4.80%  5291 66013s
    33    15 -367.42373   14  454 -369.64338 -351.88620  4.80%  5145 66017s
    34    14     cutoff   14      -369.64338 -351.88620  4.80%  5006 66020s
    36    16 -368.53356   16  433 -369.64338 -351.88620  4.80%  4734 66025s
    42    14 -354.14040    3  715 -369.64338 -354.14040  4.19%  4157 66060s
    43    15 -356.32550    4  663 -369.64338 -354.14700  4.19%  4167 66115s
    44    16 -359.65497    4  696 -369.64338 -356.32550  3.60%  4243 66181s
    45    17 -361.87462    5  696 -369.64338 -356.32550  3.60%  4187 66203s
    47    17     cutoff    6      -369.64338 -356.32550  3.60%  4142 66272s
    48    18 -362.98444    7  709 -369.64338 -356.32550  3.60%  4071 66304s
    49    17     cutoff    7      -369.64338 -356.32550  3.60%  4133 66365s
    51    17     cutoff    8      -369.64338 -356.32550  3.60%  4107 66424s
    52    18 -365.20409    9  596 -369.64338 -356.32550  3.60%  4039 66429s
    53    17     cutoff    9      -369.64338 -356.32550  3.60%  4067 66477s
    54    18 -366.31391   10  559 -369.64338 -356.32550  3.60%  3998 66489s
    55    19 -368.53356   11  541 -369.64338 -356.32550  3.60%  3931 66494s
    56    18     cutoff   11      -369.64338 -356.32550  3.60%  3868 66497s
    57    17     cutoff   10      -369.64338 -356.32550  3.60%  3816 66503s
    60    16 -359.65497    5  652 -369.64338 -356.32550  3.60%  3770 66581s
    61    17 -361.68965    6  580 -369.64338 -356.32550  3.60%  3736 66595s
    62    18 -363.53935    7  506 -369.64338 -356.32550  3.60%  3724 66618s
    63    19 -365.20409    8  489 -369.64338 -356.32550  3.60%  3672 66630s
    64    20 -368.16362    9  448 -369.64338 -356.32550  3.60%  3623 66644s
    65    21 -368.53356   10  328 -369.64338 -356.32550  3.60%  3570 66645s
    69    19 -368.53356    9  262 -369.64338 -356.32550  3.60%  3394 66658s
    70    20 -369.08847   10  525 -369.64338 -356.32550  3.60%  3350 66660s
    74    18 -364.64917    5  705 -369.64338 -357.43532  3.30%  3287 66744s
    75    19 -364.64917    6  707 -369.64338 -357.43532  3.30%  3244 66746s
    76    20 -365.20409    7  557 -369.64338 -357.43532  3.30%  3207 66750s
    78    20     cutoff    8      -369.64338 -357.43532  3.30%  3230 66831s
    79    21 -366.31391    9  490 -369.64338 -357.43532  3.30%  3198 66837s
    80    20     cutoff    9      -369.64338 -357.43532  3.30%  3251 66893s
    81    19     cutoff    7      -369.64338 -357.43532  3.30%  3301 66954s
    82    18     cutoff   10      -369.64338 -357.43532  3.30%  3268 66958s
    83    19 -367.42373   10  490 -369.64338 -357.43532  3.30%  3235 66963s
    85    19     cutoff   11      -369.64338 -357.43532  3.30%  3161 66966s
    88    20     cutoff   13      -369.64338 -357.43532  3.30%  3057 66970s
    92    18 -361.87462    3  716 -369.64338 -357.43742  3.30%  3054 67147s
    93    19 -362.98444    4  701 -369.64338 -357.43742  3.30%  3025 67153s
    94    20 -364.09426    5  648 -369.64338 -357.43742  3.30%  3003 67195s
    95    21 -368.21646    6  685 -369.64338 -357.43742  3.30%  2996 67209s
    96    21 -369.32629    7  645 -369.64338 -357.43742  3.30%  2968 67221s
    99    20 -367.42373    6  610 -369.64338 -357.43742  3.30%  2906 67247s
   100    19     cutoff    7      -369.64338 -357.43742  3.30%  2887 67254s
   101    20 -368.53356    7  583 -369.64338 -357.43742  3.30%  2859 67259s
   102    19     cutoff    8      -369.64338 -357.43742  3.30%  2832 67260s
   104    17     cutoff    5      -369.64338 -357.43742  3.30%  2784 67266s
   105    16     cutoff    4      -369.64338 -357.43742  3.30%  2814 67333s
   106    17 -364.64917    4  687 -369.64338 -358.54847  3.00%  2904 67476s
   107    18 -365.57403    5  616 -369.64338 -358.54847  3.00%  2881 67482s
   108    19 -366.31391    6  665 -369.64338 -358.54847  3.00%  2858 67487s
   109    18     cutoff    7      -369.64338 -358.54847  3.00%  2837 67492s
   110    19 -368.53356    7  423 -369.64338 -358.54847  3.00%  2824 67502s
   113    16     cutoff    6      -369.64338 -358.54847  3.00%  2752 67506s
   114    17 -364.09426    4  625 -369.64338 -359.65497  2.70%  2829 67671s
   115    18 -366.31391    5  663 -369.64338 -359.65497  2.70%  2822 67687s
   116    19 -367.42373    6  576 -369.64338 -359.65497  2.70%  2803 67693s
   117    20 -368.53356    7  513 -369.64338 -359.65497  2.70%  2780 67695s
   121    16     cutoff    6      -369.64338 -359.65497  2.70%  2746 67746s
   122    17 -367.83991    6 1103 -369.64338 -359.65723  2.70%  2882 67977s
   123    18 -368.53356    7  518 -369.64338 -359.65723  2.70%  2861 67982s
   125    16     cutoff    8      -369.64338 -359.65723  2.70%  2817 67985s
   127    14     cutoff    5      -369.64338 -361.31970  2.25%  2890 68201s
   128    15 -361.87462    6  507 -369.64338 -361.31970  2.25%  2870 68205s
   129    16 -368.53356    7  397 -369.64338 -361.31970  2.25%  2923 68370s
   130    15     cutoff    8      -369.64338 -361.31970  2.25%  2977 68542s
   131    14     cutoff    8      -369.64338 -361.31970  2.25%  2997 68628s
   132    15 -365.94397    7  477 -369.64338 -361.31970  2.25%  3041 68754s
   133    16 -366.31391    8  381 -369.64338 -361.31970  2.25%  3025 68775s
   135    18 -367.42373   10  376 -369.64338 -361.31970  2.25%  2987 68797s
   136    19 -368.53356   11  348 -369.64338 -361.31970  2.25%  2984 68829s
   137    18     cutoff   12      -369.64338 -361.31970  2.25%  2982 68865s
   138    17     cutoff   12      -369.64338 -361.31970  2.25%  3113 69217s
   139    16     cutoff   11      -369.64338 -361.31970  2.25%  3175 69438s
   140    15     cutoff   10      -369.64338 -361.31970  2.25%  3292 69786s
   141    14     cutoff    6      -369.64338 -361.70327  2.15%  3371 70043s
   142    13     cutoff    7      -369.64338 -361.87462  2.10%  3547 70534s
   143    12     cutoff    7      -369.64338 -361.96425  2.08%  3723 71036s
   144    11     cutoff    8      -369.64338 -362.99249  1.80%  3992 71860s
   145    10     cutoff    9      -369.64338 -363.55211  1.65%  4192 72466s
   146     9     cutoff    8      -369.64338 -364.09426  1.50%  4319 72851s
   148     7     cutoff   10      -369.64338 -364.09857  1.50%  4267 72857s
   149     8 -367.42373    5  625 -369.64338 -364.64917  1.35%  4385 73244s
   150     9 -368.53356    6  596 -369.64338 -364.64917  1.35%  4403 73375s
   151     8     cutoff    7      -369.64338 -364.64917  1.35%  4423 73499s
   152     7     cutoff    7      -369.64338 -364.64917  1.35%  4602 74100s
   153     6     cutoff    6      -369.64338 -364.64917  1.35%  4955 75326s
   154     5     cutoff    5      -369.64338 -364.66756  1.35%  5225 76215s
   155     4     cutoff    6      -369.64338 -365.20580  1.20%  5507 77464s
   156     3     cutoff   13      -369.64338 -365.94397  1.00%  5575 77719s
   157     2     cutoff    8      -369.64338 -366.31391  0.90%  5677 78126s
   158     1     cutoff    9      -369.64338 -367.42373  0.60%  5885 78873s

Cutting planes:
  MIR: 1
  Zero half: 309

Explored 160 nodes (2865469 simplex iterations) in 78875.00 seconds
Thread count was 1 (of 80 available processors)

Solution count 7: -369.643 -374.083 -378.522 ... -18612.1

Optimal solution found (tolerance 1.00e-04)
Best objective -3.696433802838e+02, best bound -3.696433802838e+02, gap 0.0000%
